HmaxDs = 1.000000
HmaxUB_percent = 1.119519
HmaxUB_real = 6636.341890
FTnetDs = 1.500000
FTnetUB_percent = 1.930624
FTnetUB_real = 24960.654157
TIFgap = 0.500000
LimCIPF = 57.77342935
SCIP version 1.1.0 [precision: 8 byte] [memory: block] [mode: optimized] [LP solver: Clp 1.8.2]
Copyright (c) 2002-2008 Konrad-Zuse-Zentrum fuer Informationstechnik Berlin (ZIB)

reading user parameter file </home/fabio/docs/hierarquia/models/scip.set>

read problem <data.N30.I1.s1.cluster2.T6.GL1.W1.TIFgap0.5.mps.gz>
============

original problem has 320 variables (165 bin, 0 int, 0 impl, 155 cont) and 145 constraints

solve problem
=============

presolving:
(round 1) 3 del vars, 3 del conss, 4 chg bounds, 0 chg sides, 30 chg coeffs, 0 upgd conss, 0 impls, 30 clqs
(round 2) 5 del vars, 3 del conss, 4 chg bounds, 1 chg sides, 30 chg coeffs, 0 upgd conss, 0 impls, 30 clqs
(round 3) 5 del vars, 3 del conss, 4 chg bounds, 3 chg sides, 30 chg coeffs, 0 upgd conss, 0 impls, 30 clqs
(round 4) 5 del vars, 4 del conss, 4 chg bounds, 3 chg sides, 30 chg coeffs, 31 upgd conss, 0 impls, 30 clqs
(round 5) 60 del vars, 4 del conss, 4 chg bounds, 3 chg sides, 30 chg coeffs, 31 upgd conss, 296 impls, 20 clqs
(round 6) 60 del vars, 14 del conss, 4 chg bounds, 3 chg sides, 30 chg coeffs, 31 upgd conss, 296 impls, 20 clqs
(round 7) 64 del vars, 14 del conss, 4 chg bounds, 3 chg sides, 30 chg coeffs, 31 upgd conss, 750 impls, 19 clqs
presolving (8 rounds):
 64 deleted vars, 14 deleted constraints, 4 tightened bounds, 0 added holes, 3 changed sides, 30 changed coefficients
 750 implications, 19 cliques
presolved problem has 256 variables (106 bin, 0 int, 0 impl, 150 cont) and 131 constraints
      1 constraints of type <knapsack>
     20 constraints of type <setppc>
    110 constraints of type <linear>
Presolving Time: 0.05

 time | node  | left  |LP iter| mem |mdpt |frac |vars |cons |ccons|cols |rows |cuts |confs|strbr|  dualbound   | primalbound  |  gap   
  0.1s|     1 |     0 |    97 | 834k|   0 |  43 | 256 | 131 | 131 | 256 | 131 |   0 |   0 |   0 | 4.778678e+01 |      --      |    Inf 
  0.1s|     1 |     0 |   554 | 907k|   0 |  42 | 256 | 131 | 131 | 256 | 160 |  29 |   0 |   0 | 7.044142e+03 |      --      |    Inf 
  0.2s|     1 |     0 |   613 | 939k|   0 |  40 | 256 | 131 | 131 | 256 | 183 |  52 |   0 |   0 | 9.951874e+03 |      --      |    Inf 
  0.3s|     1 |     0 |   691 | 981k|   0 |  43 | 256 | 131 | 131 | 256 | 216 |  85 |   0 |   0 | 1.074154e+04 |      --      |    Inf 
  0.5s|     1 |     0 |   794 |1014k|   0 |  47 | 256 | 131 | 131 | 256 | 238 | 107 |   0 |   0 | 1.188639e+04 |      --      |    Inf 
  0.7s|     1 |     0 |   851 |1034k|   0 |  44 | 256 | 131 | 131 | 256 | 257 | 126 |   0 |   0 | 1.212446e+04 |      --      |    Inf 
  0.8s|     1 |     0 |   968 |1045k|   0 |  48 | 256 | 131 | 131 | 256 | 269 | 138 |   0 |   0 | 1.306337e+04 |      --      |    Inf 
  0.9s|     1 |     0 |  1010 |1066k|   0 |  47 | 256 | 131 | 131 | 256 | 278 | 147 |   0 |   0 | 1.316524e+04 |      --      |    Inf 
  1.1s|     1 |     0 |  1118 |1074k|   0 |  46 | 256 | 131 | 131 | 256 | 286 | 155 |   0 |   0 | 1.390909e+04 |      --      |    Inf 
  1.2s|     1 |     0 |  1218 |1087k|   0 |  45 | 256 | 131 | 131 | 256 | 296 | 165 |   0 |   0 | 1.428369e+04 |      --      |    Inf 
  1.4s|     1 |     0 |  1273 |1093k|   0 |  48 | 256 | 131 | 131 | 256 | 303 | 172 |   0 |   0 | 1.433974e+04 |      --      |    Inf 
  1.4s|     1 |     0 |  1311 |1094k|   0 |  47 | 256 | 131 | 131 | 256 | 305 | 174 |   0 |   0 | 1.436767e+04 |      --      |    Inf 
  1.8s|     1 |     0 |  1372 |1096k|   0 |  42 | 256 | 129 | 129 | 256 | 305 | 174 |   0 |  19 | 1.442281e+04 |      --      |    Inf 
  2.1s|     1 |     2 |  1372 |1096k|   0 |  42 | 256 | 129 | 129 | 256 | 305 | 174 |   0 |  34 | 1.442281e+04 |      --      |    Inf 
(run 1, node 1) restarting after 12 global fixings of integer variables

(restart) converted 81 cuts from the global cut pool into linear constraints

presolving:
(round 1) 12 del vars, 0 del conss, 0 chg bounds, 0 chg sides, 0 chg coeffs, 0 upgd conss, 750 impls, 17 clqs
presolving (2 rounds):
 12 deleted vars, 0 deleted constraints, 0 tightened bounds, 0 added holes, 0 changed sides, 0 changed coefficients
 750 implications, 17 cliques
presolved problem has 244 variables (94 bin, 0 int, 0 impl, 150 cont) and 210 constraints
      1 constraints of type <knapsack>
     18 constraints of type <setppc>
    191 constraints of type <linear>
Presolving Time: 0.06

 time | node  | left  |LP iter| mem |mdpt |frac |vars |cons |ccons|cols |rows |cuts |confs|strbr|  dualbound   | primalbound  |  gap   
  2.1s|     1 |     0 |  1767 | 998k|   0 |  42 | 244 | 210 | 210 | 244 | 210 |   0 |   0 |  34 | 1.442281e+04 |      --      |    Inf 
  2.3s|     1 |     0 |  1845 |1012k|   0 |  43 | 244 | 210 | 210 | 244 | 218 |   8 |   0 |  34 | 1.465555e+04 |      --      |    Inf 
  2.6s|     1 |     0 |  1845 |1012k|   0 |   - | 244 | 209 | 209 | 244 | 218 |   8 |   0 |  58 |      --      |      --      |   0.00%

SCIP Status        : problem is solved [infeasible]
Solving Time (sec) : 2.63
Solving Nodes      : 1 (total of 2 nodes in 2 runs)
Primal Bound       : +1.00000000000000e+20 (0 solutions)
Dual Bound         : +1.00000000000000e+20
Gap                : 0.00 %

primal solution:
================

no solution available

Statistics
==========

SCIP Status        : problem is solved [infeasible]
Solving Time       :       2.63
Original Problem   :
  Problem name     : labtel
  Variables        : 320 (165 binary, 0 integer, 0 implicit integer, 155 continuous)
  Constraints      : 145 initial, 145 maximal
Presolved Problem  :
  Problem name     : t_labtel
  Variables        : 244 (94 binary, 0 integer, 0 implicit integer, 150 continuous)
  Constraints      : 210 initial, 210 maximal
Presolvers         :       Time  FixedVars   AggrVars   ChgTypes  ChgBounds   AddHoles    DelCons   ChgSides   ChgCoefs
  trivial          :       0.00         12          0          0          0          0          0          0          0
  dualfix          :       0.00          0          0          0          0          0          0          0          0
  boundshift       :       0.00          0          0          0          0          0          0          0          0
  inttobinary      :       0.00          0          0          0          0          0          0          0          0
  implics          :       0.00          0          0          0          0          0          0          0          0
  probing          :       0.03         59          0          0          0          0          0          0          0
  knapsack         :       0.00          0          0          0          0          0          0          0          0
  setppc           :       0.00          0          0          0          0          0         10          0          0
  linear           :       0.01          0          5          0          4          0          4          3         30
  root node        :          -         21          -          -         21          -          -          -          -
Constraints        :     Number  #Separate #Propagate    #EnfoLP    #EnfoPS    Cutoffs    DomReds       Cuts      Conss   Children
  integral         :          0          0          0          3          0          0          6          0          0          2
  knapsack         :          1         14        317          0          0          0          0          0          0          0
  setppc           :         18         14        317          0          0          1         15          0          0          0
  linear           :        191         14        316          0          0          9          0          0          0          0
  countsols        :          0          0          0          0          0          0          0          0          0          0
Constraint Timings :  TotalTime   Separate  Propagate     EnfoLP     EnfoPS
  integral         :       0.96       0.00       0.00       0.96       0.00
  knapsack         :       0.00       0.00       0.00       0.00       0.00
  setppc           :       0.00       0.00       0.00       0.00       0.00
  linear           :       0.03       0.01       0.02       0.00       0.00
  countsols        :       0.00       0.00       0.00       0.00       0.00
Propagators        :       Time      Calls    Cutoffs    DomReds
  rootredcost      :       0.00          0          0          0
  pseudoobj        :       0.00         20          0          0
Conflict Analysis  :       Time      Calls    Success  Conflicts   Literals    Reconvs ReconvLits   LP Iters
  propagation      :       0.00          1          0          0        0.0          0        0.0          -
  infeasible LP    :       0.00          0          0          0        0.0          0        0.0          0
  bound exceed. LP :       0.00          0          0          0        0.0          0        0.0          0
  strong branching :       0.00          0          0          0        0.0          0        0.0          0
  pseudo solution  :       0.00          0          0          0        0.0          0        0.0          -
  applied globally :          -          -          -          0        0.0          -          -          -
  applied locally  :          -          -          -          0        0.0          -          -          -
Separators         :       Time      Calls    Cutoffs    DomReds       Cuts      Conss
  cut pool         :       0.00          0          -          -          0          -    (maximal pool size: 15)
  redcost          :       0.00         14          0          0          0          0
  impliedbounds    :       0.00         14          0          0          0          0
  intobj           :       0.00          0          0          0          0          0
  gomory           :       0.06         14          0          0          8          0
  strongcg         :       0.04         14          0          0          0          0
  cmir             :       0.58         11          0          0        271          0
  flowcover        :       0.61         11          0          0         35          0
  clique           :       0.00         14          0          0          0          0
  zerohalf         :       0.00          0          0          0          0          0
  mcf              :       0.00          0          0          0          0          0
Pricers            :       Time      Calls       Vars
  problem variables:       0.00          0          0
Branching Rules    :       Time      Calls    Cutoffs    DomReds       Cuts      Conss   Children
  relpscost        :       0.96          3          0          6          0          0          2
  pscost           :       0.00          0          0          0          0          0          0
  inference        :       0.00          0          0          0          0          0          0
  mostinf          :       0.00          0          0          0          0          0          0
  leastinf         :       0.00          0          0          0          0          0          0
  fullstrong       :       0.00          0          0          0          0          0          0
  allfullstrong    :       0.00          0          0          0          0          0          0
  random           :       0.00          0          0          0          0          0          0
Primal Heuristics  :       Time      Calls      Found
  LP solutions     :       0.00          -          0
  pseudo solutions :       0.00          -          0
  simplerounding   :       0.00          0          0
  rounding         :       0.00         15          0
  shifting         :       0.01         15          0
  intshifting      :       0.00          1          0
  oneopt           :       0.00          0          0
  fixandinfer      :       0.00          0          0
  feaspump         :       0.02          1          0
  coefdiving       :       0.00          0          0
  pscostdiving     :       0.00          0          0
  fracdiving       :       0.00          0          0
  veclendiving     :       0.00          0          0
  intdiving        :       0.00          0          0
  actconsdiving    :       0.00          0          0
  objpscostdiving  :       0.00          0          0
  rootsoldiving    :       0.00          0          0
  linesearchdiving :       0.00          0          0
  guideddiving     :       0.00          0          0
  octane           :       0.00          0          0
  rens             :       0.03          1          0
  rins             :       0.00          0          0
  localbranching   :       0.00          0          0
  mutation         :       0.00          0          0
  crossover        :       0.00          0          0
  dins             :       0.00          0          0
LP                 :       Time      Calls Iterations  Iter/call   Iter/sec
  primal LP        :       0.01          0          0       0.00          -
  dual LP          :       0.20         15       1475      98.33    7375.00
  barrier LP       :       0.00          0          0       0.00          -
  diving/probing LP:       0.02         22        370      16.82   18500.00
  strong branching :       0.96         58       7782     134.17    8106.25
    (at root node) :          -         58       7782     134.17          -
  conflict analysis:       0.00          0          0       0.00          -
B&B Tree           :
  number of runs   :          2
  nodes            :          1
  nodes (total)    :          2
  nodes left       :          0
  max depth        :          0
  max depth (total):          0
  backtracks       :          0 (0.0%)
  delayed cutoffs  :          0
  repropagations   :          0 (0 domain reductions, 0 cutoffs)
  avg switch length:       2.00
  switching time   :       0.00
Solution           :
  Solutions found  :          0 (0 improvements)
  Primal Bound     : infeasible
  Dual Bound       :          -
  Gap              :       0.00 %
  Root Dual Bound  :          -
